language ESSENCE' 1.0

letting pos_FunctionND be [[5, 7; int(1..2)], [1, 4; int(1..2)], [2, 6; int(1..2)], [3, 8; int(1..2)]; int(1..4)]
$ Visualisation for pos_FunctionND
$ 5 7
$ 1 4
$ 2 6
$ 3 8

letting seq_ExplicitBounded_Length be 8
letting seq_ExplicitBounded_Values be [2, 3, 4, 2, 1, 3, 1, 4; int(1..8)]
